% Auto-generated by scripts/generate_dzn.py
% problem_type   = nonogram
% instance       = nonogram_60
% source_json    = instances_json/0_low_blowup/nonogram_60.json
% blowup         = 1.2439024390243902
% representation = NFA

mode = 1;

height = 5;
width = 5;
Q = 6;
S = 2;
row_q0 = [1, 1, 1, 1, 1];
row_F = [{2}, {6}, {6}, {3}, {5}];
col_q0 = [1, 1, 1, 1, 1];
col_F = [{3}, {4}, {5}, {2}, {5}];
row_d_dfa = array3d(1..5, 1..6, 1..2, [
  % k = 1
    0, 0,
    0, 0,
    0, 0,
    0, 0,
    0, 0,
    0, 0,

  % k = 2
    0, 0,
    0, 0,
    0, 0,
    0, 0,
    0, 0,
    0, 0,

  % k = 3
    0, 0,
    0, 0,
    0, 0,
    0, 0,
    0, 0,
    0, 0,

  % k = 4
    0, 0,
    0, 0,
    0, 0,
    0, 0,
    0, 0,
    0, 0,

  % k = 5
    0, 0,
    0, 0,
    0, 0,
    0, 0,
    0, 0,
    0, 0
]);
row_d_nfa = array3d(1..5, 1..6, 1..2, [
  % k = 1
    {1}, {2},
    {2}, {},
    {}, {},
    {}, {},
    {}, {},
    {}, {},

  % k = 2
    {1}, {2},
    {3}, {},
    {3}, {4},
    {5}, {},
    {5}, {6},
    {6}, {},

  % k = 3
    {1}, {2},
    {3}, {},
    {3}, {4},
    {5}, {},
    {5}, {6},
    {6}, {},

  % k = 4
    {1}, {2},
    {}, {3},
    {3}, {},
    {}, {},
    {}, {},
    {}, {},

  % k = 5
    {1}, {2},
    {}, {3},
    {4}, {},
    {4}, {5},
    {5}, {},
    {}, {}
]);
col_d_dfa = array3d(1..5, 1..6, 1..2, [
  % k = 1
    0, 0,
    0, 0,
    0, 0,
    0, 0,
    0, 0,
    0, 0,

  % k = 2
    0, 0,
    0, 0,
    0, 0,
    0, 0,
    0, 0,
    0, 0,

  % k = 3
    0, 0,
    0, 0,
    0, 0,
    0, 0,
    0, 0,
    0, 0,

  % k = 4
    0, 0,
    0, 0,
    0, 0,
    0, 0,
    0, 0,
    0, 0,

  % k = 5
    0, 0,
    0, 0,
    0, 0,
    0, 0,
    0, 0,
    0, 0
]);
col_d_nfa = array3d(1..5, 1..6, 1..2, [
  % k = 1
    {1}, {2},
    {}, {3},
    {3}, {},
    {}, {},
    {}, {},
    {}, {},

  % k = 2
    {1}, {2},
    {3}, {},
    {3}, {4},
    {4}, {},
    {}, {},
    {}, {},

  % k = 3
    {1}, {2},
    {}, {3},
    {4}, {},
    {4}, {5},
    {5}, {},
    {}, {},

  % k = 4
    {1}, {2},
    {2}, {},
    {}, {},
    {}, {},
    {}, {},
    {}, {},

  % k = 5
    {1}, {2},
    {}, {3},
    {}, {4},
    {}, {5},
    {5}, {},
    {}, {}
]);
